data/lp_files/q3/55_8.lp
\ Model foo
\ LP format - for model browsing. Use MPS format to capture full model detail.
Minimize
  z
Subject To
 allocateEach[1]: x[1,1] + x[2,1] + x[3,1] = 1
 allocateEach[2]: x[1,2] + x[2,2] + x[3,2] = 1
 allocateEach[3]: x[1,3] + x[2,3] + x[3,3] = 1
 allocateEach[4]: x[1,4] + x[2,4] + x[3,4] = 1
 allocateEach[5]: x[1,5] + x[2,5] + x[3,5] = 1
 allocateEach[6]: x[1,6] + x[2,6] + x[3,6] = 1
 allocateEach[7]: x[1,7] + x[2,7] + x[3,7] = 1
 allocateEach[8]: x[1,8] + x[2,8] + x[3,8] = 1
 allocateEach[9]: x[1,9] + x[2,9] + x[3,9] = 1
 allocateEach[10]: x[1,10] + x[2,10] + x[3,10] = 1
 allocateEach[11]: x[1,11] + x[2,11] + x[3,11] = 1
 allocateEach[12]: x[1,12] + x[2,12] + x[3,12] = 1
 allocateEach[13]: x[1,13] + x[2,13] + x[3,13] = 1
 allocateEach[14]: x[1,14] + x[2,14] + x[3,14] = 1
 allocateEach[15]: x[1,15] + x[2,15] + x[3,15] = 1
 allocateAllCash: cashProportion[1] + cashProportion[2] + cashProportion[3]
   = 1
 findWorstP[1,2]: z + 0.0907080900277794 cashProportion[1]
   - 0.0907080900277794 cashProportion[2] + 0.0264640852656046 x[1,1]
   + 0.0363966211236465 x[1,2] + 0.0364986677249277 x[1,3]
   + 0.0753557457905777 x[1,4] + 0.0562163387947162 x[1,5]
   + 0.0764329043596576 x[1,6] + 0.0660241510289699 x[1,7]
   + 0.1029083281365157 x[1,8] + 0.00808435852372583 x[1,9]
   + 0.073156074607404 x[1,10] + 0.0645047905210046 x[1,11]
   + 0.0991099268666024 x[1,12] + 0.1120698452293214 x[1,13]
   + 0.00565791711548274 x[1,14] + 0.0704121548840637 x[1,15]
   - 0.0264640852656046 x[2,1] - 0.0363966211236465 x[2,2]
   - 0.0364986677249277 x[2,3] - 0.0753557457905777 x[2,4]
   - 0.0562163387947162 x[2,5] - 0.0764329043596576 x[2,6]
   - 0.0660241510289699 x[2,7] - 0.1029083281365157 x[2,8]
   - 0.00808435852372583 x[2,9] - 0.073156074607404 x[2,10]
   - 0.0645047905210046 x[2,11] - 0.0991099268666024 x[2,12]
   - 0.1120698452293214 x[2,13] - 0.00565791711548274 x[2,14]
   - 0.0704121548840637 x[2,15] >= 0
 findWorstP[1,3]: z + 0.0907080900277794 cashProportion[1]
   - 0.0907080900277794 cashProportion[3] + 0.0264640852656046 x[1,1]
   + 0.0363966211236465 x[1,2] + 0.0364986677249277 x[1,3]
   + 0.0753557457905777 x[1,4] + 0.0562163387947162 x[1,5]
   + 0.0764329043596576 x[1,6] + 0.0660241510289699 x[1,7]
   + 0.1029083281365157 x[1,8] + 0.00808435852372583 x[1,9]
   + 0.073156074607404 x[1,10] + 0.0645047905210046 x[1,11]
   + 0.0991099268666024 x[1,12] + 0.1120698452293214 x[1,13]
   + 0.00565791711548274 x[1,14] + 0.0704121548840637 x[1,15]
   - 0.0264640852656046 x[3,1] - 0.0363966211236465 x[3,2]
   - 0.0364986677249277 x[3,3] - 0.0753557457905777 x[3,4]
   - 0.0562163387947162 x[3,5] - 0.0764329043596576 x[3,6]
   - 0.0660241510289699 x[3,7] - 0.1029083281365157 x[3,8]
   - 0.00808435852372583 x[3,9] - 0.073156074607404 x[3,10]
   - 0.0645047905210046 x[3,11] - 0.0991099268666024 x[3,12]
   - 0.1120698452293214 x[3,13] - 0.00565791711548274 x[3,14]
   - 0.0704121548840637 x[3,15] >= 0
 findWorstP[2,1]: z - 0.0945112586536871 cashProportion[1]
   + 0.0945112586536871 cashProportion[2] - 0.043108947853413 x[1,1]
   - 0.0637242161472485 x[1,2] - 0.1000756090069229 x[1,3]
   - 0.0852964109349526 x[1,4] - 0.0309169954870874 x[1,5]
   - 0.0169647709283368 x[1,6] - 0.0468421425702337 x[1,7]
   - 0.0492876213878978 x[1,8] - 0.0563641518795927 x[1,9]
   - 0.1025801573612456 x[1,10] - 0.0510833353023179 x[1,11]
   - 0.00685206625239232 x[1,12] - 0.1033716891524703 x[1,13]
   - 0.0630862651513362 x[1,14] - 0.085934361930865 x[1,15]
   + 0.043108947853413 x[2,1] + 0.0637242161472485 x[2,2]
   + 0.1000756090069229 x[2,3] + 0.0852964109349526 x[2,4]
   + 0.0309169954870874 x[2,5] + 0.0169647709283368 x[2,6]
   + 0.0468421425702337 x[2,7] + 0.0492876213878978 x[2,8]
   + 0.0563641518795927 x[2,9] + 0.1025801573612456 x[2,10]
   + 0.0510833353023179 x[2,11] + 0.00685206625239232 x[2,12]
   + 0.1033716891524703 x[2,13] + 0.0630862651513362 x[2,14]
   + 0.085934361930865 x[2,15] >= 0
 findWorstP[2,3]: z + 0.0945112586536871 cashProportion[2]
   - 0.0945112586536871 cashProportion[3] + 0.043108947853413 x[2,1]
   + 0.0637242161472485 x[2,2] + 0.1000756090069229 x[2,3]
   + 0.0852964109349526 x[2,4] + 0.0309169954870874 x[2,5]
   + 0.0169647709283368 x[2,6] + 0.0468421425702337 x[2,7]
   + 0.0492876213878978 x[2,8] + 0.0563641518795927 x[2,9]
   + 0.1025801573612456 x[2,10] + 0.0510833353023179 x[2,11]
   + 0.00685206625239232 x[2,12] + 0.1033716891524703 x[2,13]
   + 0.0630862651513362 x[2,14] + 0.085934361930865 x[2,15]
   - 0.043108947853413 x[3,1] - 0.0637242161472485 x[3,2]
   - 0.1000756090069229 x[3,3] - 0.0852964109349526 x[3,4]
   - 0.0309169954870874 x[3,5] - 0.0169647709283368 x[3,6]
   - 0.0468421425702337 x[3,7] - 0.0492876213878978 x[3,8]
   - 0.0563641518795927 x[3,9] - 0.1025801573612456 x[3,10]
   - 0.0510833353023179 x[3,11] - 0.00685206625239232 x[3,12]
   - 0.1033716891524703 x[3,13] - 0.0630862651513362 x[3,14]
   - 0.085934361930865 x[3,15] >= 0
 findWorstP[3,1]: z - 0.0994146959774329 cashProportion[1]
   + 0.0994146959774329 cashProportion[3] - 0.0226789775198519 x[1,1]
   - 0.0422885263014005 x[1,2] - 0.0478433224391396 x[1,3]
   - 0.0354910464639435 x[1,4] - 0.0045233686669732 x[1,5]
   - 0.0666699804898659 x[1,6] - 0.1210498191895217 x[1,7]
   - 0.0769096941755415 x[1,8] - 0.101576965614942 x[1,9]
   - 0.0817685874414385 x[1,10] - 0.0510618732214089 x[1,11]
   - 0.119334915683911 x[1,12] - 0.0089224689639746 x[1,13]
   - 0.1185644517900858 x[1,14] - 0.0019013060605684 x[1,15]
   + 0.0226789775198519 x[3,1] + 0.0422885263014005 x[3,2]
   + 0.0478433224391396 x[3,3] + 0.0354910464639435 x[3,4]
   + 0.0045233686669732 x[3,5] + 0.0666699804898659 x[3,6]
   + 0.1210498191895217 x[3,7] + 0.0769096941755415 x[3,8]
   + 0.101576965614942 x[3,9] + 0.0817685874414385 x[3,10]
   + 0.0510618732214089 x[3,11] + 0.119334915683911 x[3,12]
   + 0.0089224689639746 x[3,13] + 0.1185644517900858 x[3,14]
   + 0.0019013060605684 x[3,15] >= 0
 findWorstP[3,2]: z - 0.0994146959774329 cashProportion[2]
   + 0.0994146959774329 cashProportion[3] - 0.0226789775198519 x[2,1]
   - 0.0422885263014005 x[2,2] - 0.0478433224391396 x[2,3]
   - 0.0354910464639435 x[2,4] - 0.0045233686669732 x[2,5]
   - 0.0666699804898659 x[2,6] - 0.1210498191895217 x[2,7]
   - 0.0769096941755415 x[2,8] - 0.101576965614942 x[2,9]
   - 0.0817685874414385 x[2,10] - 0.0510618732214089 x[2,11]
   - 0.119334915683911 x[2,12] - 0.0089224689639746 x[2,13]
   - 0.1185644517900858 x[2,14] - 0.0019013060605684 x[2,15]
   + 0.0226789775198519 x[3,1] + 0.0422885263014005 x[3,2]
   + 0.0478433224391396 x[3,3] + 0.0354910464639435 x[3,4]
   + 0.0045233686669732 x[3,5] + 0.0666699804898659 x[3,6]
   + 0.1210498191895217 x[3,7] + 0.0769096941755415 x[3,8]
   + 0.101576965614942 x[3,9] + 0.0817685874414385 x[3,10]
   + 0.0510618732214089 x[3,11] + 0.119334915683911 x[3,12]
   + 0.0089224689639746 x[3,13] + 0.1185644517900858 x[3,14]
   + 0.0019013060605684 x[3,15] >= 0
Bounds
 z <= 1
 -infinity <= cashProportion[1] <= 1
 -infinity <= cashProportion[2] <= 1
 -infinity <= cashProportion[3] <= 1
Binaries
 x[1,1] x[1,2] x[1,3] x[1,4] x[1,5] x[1,6] x[1,7] x[1,8] x[1,9] x[1,10]
 x[1,11] x[1,12] x[1,13] x[1,14] x[1,15] x[2,1] x[2,2] x[2,3] x[2,4] x[2,5]
 x[2,6] x[2,7] x[2,8] x[2,9] x[2,10] x[2,11] x[2,12] x[2,13] x[2,14]
 x[2,15] x[3,1] x[3,2] x[3,3] x[3,4] x[3,5] x[3,6] x[3,7] x[3,8] x[3,9]
 x[3,10] x[3,11] x[3,12] x[3,13] x[3,14] x[3,15]
End
