data/mps_files/pEFS/55_8.mps
NAME foo
ROWS
 N  OBJ
 E  allocateEach[1]
 E  allocateEach[2]
 E  allocateEach[3]
 E  allocateEach[4]
 E  allocateEach[5]
 E  allocateEach[6]
 E  allocateEach[7]
 E  allocateEach[8]
 E  allocateEach[9]
 E  allocateEach[10]
 E  allocateEach[11]
 E  allocateEach[12]
 E  allocateEach[13]
 E  allocateEach[14]
 E  allocateEach[15]
 E  allocateAllCash
 G  findWorstP[1,2]
 G  findWorstP[1,3]
 G  findWorstP[2,1]
 G  findWorstP[2,3]
 G  findWorstP[3,1]
 G  findWorstP[3,2]
COLUMNS
    z         OBJ       1
    z         findWorstP[1,2]  1
    z         findWorstP[1,3]  1
    z         findWorstP[2,1]  1
    z         findWorstP[2,3]  1
    z         findWorstP[3,1]  1
    z         findWorstP[3,2]  1
    cashProportion[1]  allocateAllCash  1
    cashProportion[1]  findWorstP[1,2]  9.0708090027779353e-02
    cashProportion[1]  findWorstP[1,3]  9.0708090027779353e-02
    cashProportion[1]  findWorstP[2,1]  -9.4511258653687133e-02
    cashProportion[1]  findWorstP[3,1]  -9.9414695977432868e-02
    cashProportion[2]  allocateAllCash  1
    cashProportion[2]  findWorstP[1,2]  -9.0708090027779353e-02
    cashProportion[2]  findWorstP[2,1]  9.4511258653687133e-02
    cashProportion[2]  findWorstP[2,3]  9.4511258653687133e-02
    cashProportion[2]  findWorstP[3,2]  -9.9414695977432868e-02
    cashProportion[3]  allocateAllCash  1
    cashProportion[3]  findWorstP[1,3]  -9.0708090027779353e-02
    cashProportion[3]  findWorstP[2,3]  -9.4511258653687133e-02
    cashProportion[3]  findWorstP[3,1]  9.9414695977432868e-02
    cashProportion[3]  findWorstP[3,2]  9.9414695977432868e-02
    MARKER    'MARKER'                 'INTORG'
    x[1,1]    allocateEach[1]  1
    x[1,1]    findWorstP[1,2]  2.6464085265604623e-02
    x[1,1]    findWorstP[1,3]  2.6464085265604623e-02
    x[1,1]    findWorstP[2,1]  -4.3108947853413036e-02
    x[1,1]    findWorstP[3,1]  -2.2678977519851869e-02
    x[1,2]    allocateEach[2]  1
    x[1,2]    findWorstP[1,2]  3.6396621123646465e-02
    x[1,2]    findWorstP[1,3]  3.6396621123646465e-02
    x[1,2]    findWorstP[2,1]  -6.3724216147248533e-02
    x[1,2]    findWorstP[3,1]  -0.0422885263014005
    x[1,3]    allocateEach[3]  1
    x[1,3]    findWorstP[1,2]  3.6498667724927714e-02
    x[1,3]    findWorstP[1,3]  3.6498667724927714e-02
    x[1,3]    findWorstP[2,1]  -1.0007560900692294e-01
    x[1,3]    findWorstP[3,1]  -4.7843322439139566e-02
    x[1,4]    allocateEach[4]  1
    x[1,4]    findWorstP[1,2]  7.5355745790577688e-02
    x[1,4]    findWorstP[1,3]  7.5355745790577688e-02
    x[1,4]    findWorstP[2,1]  -8.5296410934952618e-02
    x[1,4]    findWorstP[3,1]  -3.5491046463943535e-02
    x[1,5]    allocateEach[5]  1
    x[1,5]    findWorstP[1,2]  5.6216338794716249e-02
    x[1,5]    findWorstP[1,3]  5.6216338794716249e-02
    x[1,5]    findWorstP[2,1]  -3.0916995487087394e-02
    x[1,5]    findWorstP[3,1]  -4.5233686669731953e-03
    x[1,6]    allocateEach[6]  1
    x[1,6]    findWorstP[1,2]  7.6432904359657577e-02
    x[1,6]    findWorstP[1,3]  7.6432904359657577e-02
    x[1,6]    findWorstP[2,1]  -1.6964770928336839e-02
    x[1,6]    findWorstP[3,1]  -0.0666699804898659
    x[1,7]    allocateEach[7]  1
    x[1,7]    findWorstP[1,2]  0.0660241510289699
    x[1,7]    findWorstP[1,3]  0.0660241510289699
    x[1,7]    findWorstP[2,1]  -4.6842142570233676e-02
    x[1,7]    findWorstP[3,1]  -1.2104981918952168e-01
    x[1,8]    allocateEach[8]  1
    x[1,8]    findWorstP[1,2]  1.0290832813651565e-01
    x[1,8]    findWorstP[1,3]  1.0290832813651565e-01
    x[1,8]    findWorstP[2,1]  -4.9287621387897829e-02
    x[1,8]    findWorstP[3,1]  -0.0769096941755415
    x[1,9]    allocateEach[9]  1
    x[1,9]    findWorstP[1,2]  8.0843585237258334e-03
    x[1,9]    findWorstP[1,3]  8.0843585237258334e-03
    x[1,9]    findWorstP[2,1]  -5.6364151879592657e-02
    x[1,9]    findWorstP[3,1]  -1.0157696561494202e-01
    x[1,10]   allocateEach[10]  1
    x[1,10]   findWorstP[1,2]  7.3156074607404045e-02
    x[1,10]   findWorstP[1,3]  7.3156074607404045e-02
    x[1,10]   findWorstP[2,1]  -1.0258015736124565e-01
    x[1,10]   findWorstP[3,1]  -8.1768587441438528e-02
    x[1,11]   allocateEach[11]  1
    x[1,11]   findWorstP[1,2]  6.4504790521004579e-02
    x[1,11]   findWorstP[1,3]  6.4504790521004579e-02
    x[1,11]   findWorstP[2,1]  -5.1083335302317887e-02
    x[1,11]   findWorstP[3,1]  -5.1061873221408947e-02
    x[1,12]   allocateEach[12]  1
    x[1,12]   findWorstP[1,2]  0.0991099268666024
    x[1,12]   findWorstP[1,3]  0.0991099268666024
    x[1,12]   findWorstP[2,1]  -6.8520662523923158e-03
    x[1,12]   findWorstP[3,1]  -1.1933491568391097e-01
    x[1,13]   allocateEach[13]  1
    x[1,13]   findWorstP[1,2]  1.1206984522932137e-01
    x[1,13]   findWorstP[1,3]  1.1206984522932137e-01
    x[1,13]   findWorstP[2,1]  -1.0337168915247028e-01
    x[1,13]   findWorstP[3,1]  -0.0089224689639746
    x[1,14]   allocateEach[14]  1
    x[1,14]   findWorstP[1,2]  5.6579171154827364e-03
    x[1,14]   findWorstP[1,3]  5.6579171154827364e-03
    x[1,14]   findWorstP[2,1]  -6.3086265151336154e-02
    x[1,14]   findWorstP[3,1]  -1.1856445179008585e-01
    x[1,15]   allocateEach[15]  1
    x[1,15]   findWorstP[1,2]  7.0412154884063716e-02
    x[1,15]   findWorstP[1,3]  7.0412154884063716e-02
    x[1,15]   findWorstP[2,1]  -8.5934361930865011e-02
    x[1,15]   findWorstP[3,1]  -1.9013060605684033e-03
    x[2,1]    allocateEach[1]  1
    x[2,1]    findWorstP[1,2]  -2.6464085265604623e-02
    x[2,1]    findWorstP[2,1]  4.3108947853413036e-02
    x[2,1]    findWorstP[2,3]  4.3108947853413036e-02
    x[2,1]    findWorstP[3,2]  -2.2678977519851869e-02
    x[2,2]    allocateEach[2]  1
    x[2,2]    findWorstP[1,2]  -3.6396621123646465e-02
    x[2,2]    findWorstP[2,1]  6.3724216147248533e-02
    x[2,2]    findWorstP[2,3]  6.3724216147248533e-02
    x[2,2]    findWorstP[3,2]  -0.0422885263014005
    x[2,3]    allocateEach[3]  1
    x[2,3]    findWorstP[1,2]  -3.6498667724927714e-02
    x[2,3]    findWorstP[2,1]  1.0007560900692294e-01
    x[2,3]    findWorstP[2,3]  1.0007560900692294e-01
    x[2,3]    findWorstP[3,2]  -4.7843322439139566e-02
    x[2,4]    allocateEach[4]  1
    x[2,4]    findWorstP[1,2]  -7.5355745790577688e-02
    x[2,4]    findWorstP[2,1]  8.5296410934952618e-02
    x[2,4]    findWorstP[2,3]  8.5296410934952618e-02
    x[2,4]    findWorstP[3,2]  -3.5491046463943535e-02
    x[2,5]    allocateEach[5]  1
    x[2,5]    findWorstP[1,2]  -5.6216338794716249e-02
    x[2,5]    findWorstP[2,1]  3.0916995487087394e-02
    x[2,5]    findWorstP[2,3]  3.0916995487087394e-02
    x[2,5]    findWorstP[3,2]  -4.5233686669731953e-03
    x[2,6]    allocateEach[6]  1
    x[2,6]    findWorstP[1,2]  -7.6432904359657577e-02
    x[2,6]    findWorstP[2,1]  1.6964770928336839e-02
    x[2,6]    findWorstP[2,3]  1.6964770928336839e-02
    x[2,6]    findWorstP[3,2]  -0.0666699804898659
    x[2,7]    allocateEach[7]  1
    x[2,7]    findWorstP[1,2]  -0.0660241510289699
    x[2,7]    findWorstP[2,1]  4.6842142570233676e-02
    x[2,7]    findWorstP[2,3]  4.6842142570233676e-02
    x[2,7]    findWorstP[3,2]  -1.2104981918952168e-01
    x[2,8]    allocateEach[8]  1
    x[2,8]    findWorstP[1,2]  -1.0290832813651565e-01
    x[2,8]    findWorstP[2,1]  4.9287621387897829e-02
    x[2,8]    findWorstP[2,3]  4.9287621387897829e-02
    x[2,8]    findWorstP[3,2]  -0.0769096941755415
    x[2,9]    allocateEach[9]  1
    x[2,9]    findWorstP[1,2]  -8.0843585237258334e-03
    x[2,9]    findWorstP[2,1]  5.6364151879592657e-02
    x[2,9]    findWorstP[2,3]  5.6364151879592657e-02
    x[2,9]    findWorstP[3,2]  -1.0157696561494202e-01
    x[2,10]   allocateEach[10]  1
    x[2,10]   findWorstP[1,2]  -7.3156074607404045e-02
    x[2,10]   findWorstP[2,1]  1.0258015736124565e-01
    x[2,10]   findWorstP[2,3]  1.0258015736124565e-01
    x[2,10]   findWorstP[3,2]  -8.1768587441438528e-02
    x[2,11]   allocateEach[11]  1
    x[2,11]   findWorstP[1,2]  -6.4504790521004579e-02
    x[2,11]   findWorstP[2,1]  5.1083335302317887e-02
    x[2,11]   findWorstP[2,3]  5.1083335302317887e-02
    x[2,11]   findWorstP[3,2]  -5.1061873221408947e-02
    x[2,12]   allocateEach[12]  1
    x[2,12]   findWorstP[1,2]  -0.0991099268666024
    x[2,12]   findWorstP[2,1]  6.8520662523923158e-03
    x[2,12]   findWorstP[2,3]  6.8520662523923158e-03
    x[2,12]   findWorstP[3,2]  -1.1933491568391097e-01
    x[2,13]   allocateEach[13]  1
    x[2,13]   findWorstP[1,2]  -1.1206984522932137e-01
    x[2,13]   findWorstP[2,1]  1.0337168915247028e-01
    x[2,13]   findWorstP[2,3]  1.0337168915247028e-01
    x[2,13]   findWorstP[3,2]  -0.0089224689639746
    x[2,14]   allocateEach[14]  1
    x[2,14]   findWorstP[1,2]  -5.6579171154827364e-03
    x[2,14]   findWorstP[2,1]  6.3086265151336154e-02
    x[2,14]   findWorstP[2,3]  6.3086265151336154e-02
    x[2,14]   findWorstP[3,2]  -1.1856445179008585e-01
    x[2,15]   allocateEach[15]  1
    x[2,15]   findWorstP[1,2]  -7.0412154884063716e-02
    x[2,15]   findWorstP[2,1]  8.5934361930865011e-02
    x[2,15]   findWorstP[2,3]  8.5934361930865011e-02
    x[2,15]   findWorstP[3,2]  -1.9013060605684033e-03
    x[3,1]    allocateEach[1]  1
    x[3,1]    findWorstP[1,3]  -2.6464085265604623e-02
    x[3,1]    findWorstP[2,3]  -4.3108947853413036e-02
    x[3,1]    findWorstP[3,1]  2.2678977519851869e-02
    x[3,1]    findWorstP[3,2]  2.2678977519851869e-02
    x[3,2]    allocateEach[2]  1
    x[3,2]    findWorstP[1,3]  -3.6396621123646465e-02
    x[3,2]    findWorstP[2,3]  -6.3724216147248533e-02
    x[3,2]    findWorstP[3,1]  0.0422885263014005
    x[3,2]    findWorstP[3,2]  0.0422885263014005
    x[3,3]    allocateEach[3]  1
    x[3,3]    findWorstP[1,3]  -3.6498667724927714e-02
    x[3,3]    findWorstP[2,3]  -1.0007560900692294e-01
    x[3,3]    findWorstP[3,1]  4.7843322439139566e-02
    x[3,3]    findWorstP[3,2]  4.7843322439139566e-02
    x[3,4]    allocateEach[4]  1
    x[3,4]    findWorstP[1,3]  -7.5355745790577688e-02
    x[3,4]    findWorstP[2,3]  -8.5296410934952618e-02
    x[3,4]    findWorstP[3,1]  3.5491046463943535e-02
    x[3,4]    findWorstP[3,2]  3.5491046463943535e-02
    x[3,5]    allocateEach[5]  1
    x[3,5]    findWorstP[1,3]  -5.6216338794716249e-02
    x[3,5]    findWorstP[2,3]  -3.0916995487087394e-02
    x[3,5]    findWorstP[3,1]  4.5233686669731953e-03
    x[3,5]    findWorstP[3,2]  4.5233686669731953e-03
    x[3,6]    allocateEach[6]  1
    x[3,6]    findWorstP[1,3]  -7.6432904359657577e-02
    x[3,6]    findWorstP[2,3]  -1.6964770928336839e-02
    x[3,6]    findWorstP[3,1]  0.0666699804898659
    x[3,6]    findWorstP[3,2]  0.0666699804898659
    x[3,7]    allocateEach[7]  1
    x[3,7]    findWorstP[1,3]  -0.0660241510289699
    x[3,7]    findWorstP[2,3]  -4.6842142570233676e-02
    x[3,7]    findWorstP[3,1]  1.2104981918952168e-01
    x[3,7]    findWorstP[3,2]  1.2104981918952168e-01
    x[3,8]    allocateEach[8]  1
    x[3,8]    findWorstP[1,3]  -1.0290832813651565e-01
    x[3,8]    findWorstP[2,3]  -4.9287621387897829e-02
    x[3,8]    findWorstP[3,1]  0.0769096941755415
    x[3,8]    findWorstP[3,2]  0.0769096941755415
    x[3,9]    allocateEach[9]  1
    x[3,9]    findWorstP[1,3]  -8.0843585237258334e-03
    x[3,9]    findWorstP[2,3]  -5.6364151879592657e-02
    x[3,9]    findWorstP[3,1]  1.0157696561494202e-01
    x[3,9]    findWorstP[3,2]  1.0157696561494202e-01
    x[3,10]   allocateEach[10]  1
    x[3,10]   findWorstP[1,3]  -7.3156074607404045e-02
    x[3,10]   findWorstP[2,3]  -1.0258015736124565e-01
    x[3,10]   findWorstP[3,1]  8.1768587441438528e-02
    x[3,10]   findWorstP[3,2]  8.1768587441438528e-02
    x[3,11]   allocateEach[11]  1
    x[3,11]   findWorstP[1,3]  -6.4504790521004579e-02
    x[3,11]   findWorstP[2,3]  -5.1083335302317887e-02
    x[3,11]   findWorstP[3,1]  5.1061873221408947e-02
    x[3,11]   findWorstP[3,2]  5.1061873221408947e-02
    x[3,12]   allocateEach[12]  1
    x[3,12]   findWorstP[1,3]  -0.0991099268666024
    x[3,12]   findWorstP[2,3]  -6.8520662523923158e-03
    x[3,12]   findWorstP[3,1]  1.1933491568391097e-01
    x[3,12]   findWorstP[3,2]  1.1933491568391097e-01
    x[3,13]   allocateEach[13]  1
    x[3,13]   findWorstP[1,3]  -1.1206984522932137e-01
    x[3,13]   findWorstP[2,3]  -1.0337168915247028e-01
    x[3,13]   findWorstP[3,1]  0.0089224689639746
    x[3,13]   findWorstP[3,2]  0.0089224689639746
    x[3,14]   allocateEach[14]  1
    x[3,14]   findWorstP[1,3]  -5.6579171154827364e-03
    x[3,14]   findWorstP[2,3]  -6.3086265151336154e-02
    x[3,14]   findWorstP[3,1]  1.1856445179008585e-01
    x[3,14]   findWorstP[3,2]  1.1856445179008585e-01
    x[3,15]   allocateEach[15]  1
    x[3,15]   findWorstP[1,3]  -7.0412154884063716e-02
    x[3,15]   findWorstP[2,3]  -8.5934361930865011e-02
    x[3,15]   findWorstP[3,1]  1.9013060605684033e-03
    x[3,15]   findWorstP[3,2]  1.9013060605684033e-03
    MARKER    'MARKER'                 'INTEND'
RHS
    RHS1      allocateEach[1]  1
    RHS1      allocateEach[2]  1
    RHS1      allocateEach[3]  1
    RHS1      allocateEach[4]  1
    RHS1      allocateEach[5]  1
    RHS1      allocateEach[6]  1
    RHS1      allocateEach[7]  1
    RHS1      allocateEach[8]  1
    RHS1      allocateEach[9]  1
    RHS1      allocateEach[10]  1
    RHS1      allocateEach[11]  1
    RHS1      allocateEach[12]  1
    RHS1      allocateEach[13]  1
    RHS1      allocateEach[14]  1
    RHS1      allocateEach[15]  1
    RHS1      allocateAllCash  1
BOUNDS
 UP BND1      z         1
 MI BND1      cashProportion[1]
 UP BND1      cashProportion[1]  1
 MI BND1      cashProportion[2]
 UP BND1      cashProportion[2]  1
 MI BND1      cashProportion[3]
 UP BND1      cashProportion[3]  1
 BV BND1      x[1,1]  
 BV BND1      x[1,2]  
 BV BND1      x[1,3]  
 BV BND1      x[1,4]  
 BV BND1      x[1,5]  
 BV BND1      x[1,6]  
 BV BND1      x[1,7]  
 BV BND1      x[1,8]  
 BV BND1      x[1,9]  
 BV BND1      x[1,10] 
 BV BND1      x[1,11] 
 BV BND1      x[1,12] 
 BV BND1      x[1,13] 
 BV BND1      x[1,14] 
 BV BND1      x[1,15] 
 BV BND1      x[2,1]  
 BV BND1      x[2,2]  
 BV BND1      x[2,3]  
 BV BND1      x[2,4]  
 BV BND1      x[2,5]  
 BV BND1      x[2,6]  
 BV BND1      x[2,7]  
 BV BND1      x[2,8]  
 BV BND1      x[2,9]  
 BV BND1      x[2,10] 
 BV BND1      x[2,11] 
 BV BND1      x[2,12] 
 BV BND1      x[2,13] 
 BV BND1      x[2,14] 
 BV BND1      x[2,15] 
 BV BND1      x[3,1]  
 BV BND1      x[3,2]  
 BV BND1      x[3,3]  
 BV BND1      x[3,4]  
 BV BND1      x[3,5]  
 BV BND1      x[3,6]  
 BV BND1      x[3,7]  
 BV BND1      x[3,8]  
 BV BND1      x[3,9]  
 BV BND1      x[3,10] 
 BV BND1      x[3,11] 
 BV BND1      x[3,12] 
 BV BND1      x[3,13] 
 BV BND1      x[3,14] 
 BV BND1      x[3,15] 
ENDATA
